0 422191049 
1 233998604 
2 233883997 
3 233843662 
4 233766607 
5 53282438 
6 53281680 
7 53253338 
8 53138962 
9 53120570 
10 53101509 
11 53072161 
12 53058018 
13 53032227 
14 52977534 
15 52950323 
16 52911988 
17 52900395 
18 52878796 
19 52857764 
20 52854599 
21 52795077 
22 52731375 
23 52702300 
24 52695881 
25 52649966 
26 52519352 
27 52506159 
28 52470442 
29 52433107 
30 52429292 
31 52362313 
32 52341695 
33 52332087 
34 52328351 
35 52278527 
36 52248914 
37 52235761 
38 52148854 
39 52140850 
40 52138523 
41 52132107 
42 52036126 
43 52027596 
44 51902061 
45 51847475 
46 51824872 
47 51784867 
48 51765268 
49 51765268 

